# Solution for model micodag
# Objective value = 6.8427288061851552e+00
s_0_1 0
s_1_0 0
s_1_3 0
s_3_1 0
s_1_4 0
s_4_1 0.292636679201439
s_2_3 0
s_3_2 2.4248921608288754e-01
s_2_5 9.2748592821446030e-01
s_5_2 0
s_3_4 0
s_4_3 3.7893350232799961e-01
s_4_5 0
s_5_4 0
s_4_6 0
s_6_4 6.9633694343292341e-01
s_4_7 0
s_7_4 7.7539651432486689e-01
s_5_6 0
s_6_5 1.2285681930668746e+00
s_0_0 1.0276071973291909e+00
s_1_1 6.8839362014912187e-01
s_2_2 3.2436438496730533e+00
s_3_3 6.7692035718809507e-01
s_4_4 6.6858875506084914e-01
s_5_5 1.1189232067516870e+00
s_6_6 2.0709589680932190e+00
s_7_7 1.8792399029591036e+00
Gamma_0_0 1.0137096217996513e+00
Gamma_0_1 0
Gamma_0_2 0
Gamma_0_3 0
Gamma_0_4 0
Gamma_0_5 0
Gamma_0_6 0
Gamma_0_7 0
Gamma_1_0 0
Gamma_1_1 8.2969489581961553e-01
Gamma_1_2 0
Gamma_1_3 0
Gamma_1_4 0
Gamma_1_5 0
Gamma_1_6 0
Gamma_1_7 0
Gamma_2_0 0
Gamma_2_1 0
Gamma_2_2 1.8010118960387389e+00
Gamma_2_3 0
Gamma_2_4 0
Gamma_2_5 -9.6306070847816250e-01
Gamma_2_6 0
Gamma_2_7 0
Gamma_3_0 0
Gamma_3_1 0
Gamma_3_2 4.9243194055918843e-01
Gamma_3_3 8.2275169838055973e-01
Gamma_3_4 0
Gamma_3_5 0
Gamma_3_6 0
Gamma_3_7 0
Gamma_4_0 0
Gamma_4_1 -5.4095903652812716e-01
Gamma_4_2 0
Gamma_4_3 6.1557574865161824e-01
Gamma_4_4 8.1767276771386344e-01
Gamma_4_5 0
Gamma_4_6 0
Gamma_4_7 0
Gamma_5_0 0
Gamma_5_1 0
Gamma_5_2 0
Gamma_5_3 0
Gamma_5_4 0
Gamma_5_5 1.0577916650984196e+00
Gamma_5_6 0
Gamma_5_7 0
Gamma_6_0 0
Gamma_6_1 0
Gamma_6_2 0
Gamma_6_3 0
Gamma_6_4 -8.3446806016343333e-01
Gamma_6_5 1.1084079542600169e+00
Gamma_6_6 1.4390826828550258e+00
Gamma_6_7 0
Gamma_7_0 0
Gamma_7_1 0
Gamma_7_2 0
Gamma_7_3 0
Gamma_7_4 -8.8056601928808731e-01
Gamma_7_5 0
Gamma_7_6 0
Gamma_7_7 1.3708537131871892e+00
psi_0 0
psi_1 2
psi_2 3
psi_3 2
psi_4 1
psi_5 4
psi_6 0
psi_7 0
g_0_0 0
g_0_1 0
g_0_2 0
g_0_3 0
g_0_4 0
g_0_5 0
g_0_6 0
g_0_7 0
g_1_0 0
g_1_1 0
g_1_2 0
g_1_3 0
g_1_4 0
g_1_5 0
g_1_6 0
g_1_7 0
g_2_0 0
g_2_1 0
g_2_2 0
g_2_3 0
g_2_4 0
g_2_5 1
g_2_6 0
g_2_7 0
g_3_0 0
g_3_1 0
g_3_2 1
g_3_3 0
g_3_4 0
g_3_5 0
g_3_6 0
g_3_7 0
g_4_0 0
g_4_1 1
g_4_2 0
g_4_3 1
g_4_4 0
g_4_5 0
g_4_6 0
g_4_7 0
g_5_0 0
g_5_1 0
g_5_2 0
g_5_3 0
g_5_4 0
g_5_5 0
g_5_6 0
g_5_7 0
g_6_0 0
g_6_1 0
g_6_2 0
g_6_3 0
g_6_4 1
g_6_5 1
g_6_6 0
g_6_7 0
g_7_0 0
g_7_1 0
g_7_2 0
g_7_3 0
g_7_4 1
g_7_5 0
g_7_6 0
g_7_7 0
T_0 -2.7232990247355815e-02
T_1 3.7339448233859684e-01
T_2 -1.1766973428256762e+00
T_3 3.9020165377576177e-01
T_4 4.0258612377225234e-01
T_5 -1.1236680030077650e-01
T_6 -7.2801176961129954e-01
T_7 -6.3086738815113108e-01
